367, 0, 0, 69, 3
368, 0, 1, 52, 2
369, 0, 2, 68, 0
370, 0, 3, 37, 1
371, 1, 0, 99, 3
372, 1, 1, 41, 1
373, 1, 2, 84, 2
374, 1, 3, 78, 0
375, 2, 0, 78, 3
376, 2, 1, 75, 1
377, 2, 2, 93, 2
378, 2, 3, 95, 0
379, 3, 0, 36, 2
380, 3, 1, 74, 0
381, 3, 2, 48, 1
382, 3, 3, 51, 3
